54678 22831
22296 34288
37801 24973
45466 21541
38815 24223
32298 50189
10482 2532
17774 55257
31623 14083
24321 34697
9072 44564
38127 46506
6095 17761
43258 46779
14510 38117
49576 45661
48734 55599
57860 29823
48513 35244
45774 48896
5020 25774
58973 5400
47168 19613
3264 4211
35811 50812
34501 19269
46129 6995
17912 36317
43944 52623
58332 29055
46692 43548
792 8411
34267 23904
55230 12635
27672 7181
47965 522
37294 26717
54756 19491
64954 25343
65286 49503
52254 50200
37034 31606
62355 11739
49187 23651
36739 62554
43633 65106
55223 39409
13818 19371
47503 3334
58017 60894
50841 11437
63577 63757
34341 56221
39324 40345
36955 38916
21816 34906
7313 17673
34833 47852
9432 28558
15940 23707
31049 5730
31035 33154
25414 40571
28144 36109
38338 5662
52081 53004
14248 45674
58237 6579
44027 33142
50194 41153
1985 12258
44660 19530
45176 37863
6074 25943
25725 28889
20836 61349
46643 41751
43692 19360
